************************************************************************
file with basedata            : mm28_.bas
initial value random generator: 21149
************************************************************************
projects                      :  1
jobs (incl. supersource/sink ):  12
horizon                       :  84
RESOURCES
  - renewable                 :  2   R
  - nonrenewable              :  2   N
  - doubly constrained        :  0   D
************************************************************************
PROJECT INFORMATION:
pronr.  #jobs rel.date duedate tardcost  MPM-Time
    1     10      0       19        2       19
************************************************************************
PRECEDENCE RELATIONS:
jobnr.    #modes  #successors   successors
   0        1          3           1   2   3
   1        3          2           9  10
   2        3          2           4   5
   3        3          2           5   6
   4        3          2           7  10
   5        3          1           8
   6        3          1           8
   7        3          2           8   9
   8        3          1          11
   9        3          1          11
  10        3          1          11
  11        1          0        
************************************************************************
REQUESTS/DURATIONS:
jobnr. mode duration  R 1  R 2  R 3  R 4  E(W 1)  E(W 2)  E(W 3)
------------------------------------------------------------------------
  0      1     0       0    0    0    0     0       0       0
  1      1     4       1    0    0    7     8       0      28
  2      1     1       4    0    0    7     4       0       7
  3      1     2       9    0    4    0    18       8       0
  4      1     5       0    5    0   10    25       0      50
  5      1     1       9    0    8    0     9       8       0
  6      1     5       0    7    9    0    35      45       0
  7      1     7       4    0    9    0    28      63       0
  8      1     4       4    0    0    5    16       0      20
  9      1     6       5    0    4    0    30      24       0
 10      1     3       0    6    9    0    18      27       0
 11      1     0       0    0    0    0     0       0       0
************************************************************************
RESOURCEAVAILABILITIES:
  R 1  R 2  R 3
   38   67   51
************************************************************************
RESOURCE LIMITS:
jobnr.  l(R 1)  u(R 1)  l(R 2)  u(R 2)  l(R 3)  u(R 3)
------------------------------------------------------------------------
  0        0       0       0       0       0       0
  1        1       2       0       0       4       7
  2        2       4       0       0       4       7
  3        5       9       2       4       0       0
  4        3       5       0       0       5      10
  5        5       9       4       8       0       0
  6        4       7       5       9       0       0
  7        2       4       5       9       0       0
  8        2       4       0       0       3       5
  9        3       5       2       4       0       0
 10        3       6       5       9       0       0
 11        0       0       0       0       0       0
************************************************************************
SCENARIOS:
------------------------------------------------------------------------
RESOURCE k = 1
s = 1: (0, 11, 8, 12, 18, 7, 43, 27, 21, 20, 11, 0)
s = 2: (0, 10, 5, 12, 31, 5, 44, 39, 12, 47, 25, 0)
s = 3: (0, 7, 4, 10, 27, 13, 20, 26, 30, 38, 13, 0)
s = 4: (0, 7, 4, 17, 30, 9, 22, 27, 16, 40, 12, 0)
s = 5: (0, 7, 5, 22, 30, 13, 50, 34, 17, 23, 19, 0)
s = 6: (0, 5, 3, 19, 32, 7, 37, 39, 17, 28, 20, 0)
s = 7: (0, 16, 3, 14, 46, 8, 44, 16, 16, 21, 30, 0)
s = 8: (0, 6, 5, 16, 28, 13, 27, 29, 17, 47, 16, 0)
s = 9: (0, 11, 5, 20, 30, 8, 36, 26, 19, 27, 26, 0)
s = 10: (0, 7, 3, 25, 18, 13, 27, 35, 19, 29, 17, 0)
s = 11: (0, 7, 4, 12, 25, 15, 32, 25, 18, 19, 11, 0)
s = 12: (0, 11, 3, 21, 21, 8, 39, 21, 18, 18, 23, 0)
s = 13: (0, 6, 4, 21, 20, 11, 35, 40, 18, 21, 22, 0)
s = 14: (0, 6, 6, 19, 20, 7, 52, 29, 24, 40, 19, 0)
s = 15: (0, 11, 5, 18, 28, 7, 39, 37, 12, 35, 18, 0)
s = 16: (0, 9, 4, 27, 31, 13, 47, 23, 25, 38, 11, 0)
s = 17: (0, 12, 4, 19, 30, 9, 29, 30, 25, 32, 25, 0)
s = 18: (0, 7, 6, 16, 24, 6, 22, 29, 12, 24, 17, 0)
s = 19: (0, 9, 4, 12, 23, 10, 23, 36, 26, 28, 22, 0)
s = 20: (0, 9, 3, 20, 28, 8, 47, 28, 14, 22, 28, 0)
s = 21: (0, 12, 4, 15, 33, 12, 31, 29, 18, 43, 24, 0)
s = 22: (0, 7, 5, 17, 22, 6, 28, 29, 14, 24, 15, 0)
s = 23: (0, 8, 4, 11, 22, 7, 36, 45, 15, 50, 23, 0)
s = 24: (0, 7, 3, 14, 39, 11, 40, 32, 28, 22, 15, 0)
s = 25: (0, 9, 3, 14, 17, 7, 31, 35, 21, 22, 13, 0)
s = 26: (0, 8, 7, 24, 33, 10, 69, 38, 13, 22, 14, 0)
s = 27: (0, 11, 3, 18, 35, 9, 32, 20, 18, 41, 15, 0)
s = 28: (0, 7, 3, 23, 40, 11, 46, 31, 17, 35, 13, 0)
s = 29: (0, 7, 5, 18, 21, 9, 25, 21, 12, 23, 14, 0)
s = 30: (0, 6, 7, 16, 20, 9, 32, 24, 13, 33, 14, 0)
s = 31: (0, 6, 3, 30, 19, 9, 38, 31, 14, 25, 26, 0)
s = 32: (0, 7, 5, 25, 24, 7, 41, 28, 18, 19, 22, 0)
s = 33: (0, 5, 5, 18, 27, 6, 42, 42, 13, 46, 28, 0)
s = 34: (0, 6, 7, 13, 26, 6, 26, 24, 17, 21, 17, 0)
s = 35: (0, 5, 6, 14, 33, 12, 25, 34, 19, 28, 12, 0)
s = 36: (0, 7, 6, 27, 19, 10, 33, 47, 21, 40, 25, 0)
s = 37: (0, 7, 4, 16, 37, 15, 40, 41, 12, 34, 11, 0)
s = 38: (0, 14, 3, 17, 22, 8, 22, 22, 14, 35, 21, 0)
s = 39: (0, 12, 3, 24, 17, 12, 29, 36, 23, 35, 18, 0)
s = 40: (0, 8, 4, 16, 21, 8, 27, 25, 18, 17, 18, 0)
s = 41: (0, 6, 4, 14, 27, 9, 61, 27, 10, 38, 16, 0)
s = 42: (0, 7, 4, 23, 30, 12, 31, 33, 14, 30, 12, 0)
s = 43: (0, 7, 7, 17, 32, 10, 27, 36, 13, 23, 15, 0)
s = 44: (0, 12, 6, 23, 29, 8, 27, 21, 14, 29, 14, 0)
s = 45: (0, 11, 5, 25, 30, 15, 42, 27, 18, 30, 19, 0)
s = 46: (0, 9, 4, 28, 16, 12, 40, 47, 24, 27, 17, 0)
s = 47: (0, 5, 5, 15, 19, 10, 22, 27, 23, 33, 19, 0)
s = 48: (0, 5, 4, 12, 21, 7, 50, 33, 15, 23, 18, 0)
s = 49: (0, 13, 5, 25, 28, 9, 23, 35, 19, 21, 17, 0)
s = 50: (0, 6, 6, 16, 26, 10, 48, 32, 15, 29, 28, 0)
s = 51: (0, 5, 4, 20, 17, 8, 22, 27, 22, 16, 26, 0)
s = 52: (0, 6, 5, 14, 18, 7, 44, 26, 20, 49, 26, 0)
s = 53: (0, 10, 5, 13, 33, 14, 28, 34, 27, 19, 17, 0)
s = 54: (0, 7, 4, 18, 20, 7, 21, 20, 18, 36, 17, 0)
s = 55: (0, 6, 7, 16, 14, 8, 36, 18, 20, 31, 21, 0)
s = 56: (0, 11, 6, 15, 28, 9, 25, 34, 14, 22, 12, 0)
s = 57: (0, 13, 4, 16, 25, 6, 34, 42, 17, 23, 24, 0)
s = 58: (0, 10, 7, 11, 33, 14, 24, 20, 20, 20, 13, 0)
s = 59: (0, 7, 5, 21, 36, 7, 25, 22, 10, 42, 28, 0)
s = 60: (0, 9, 3, 13, 19, 13, 29, 25, 29, 35, 17, 0)
s = 61: (0, 12, 3, 20, 19, 7, 49, 27, 22, 21, 20, 0)
s = 62: (0, 7, 5, 23, 20, 8, 30, 22, 11, 36, 12, 0)
s = 63: (0, 8, 6, 14, 27, 12, 49, 24, 18, 28, 13, 0)
s = 64: (0, 9, 3, 24, 20, 8, 40, 24, 21, 22, 15, 0)
s = 65: (0, 13, 4, 24, 32, 10, 30, 19, 21, 24, 22, 0)
s = 66: (0, 10, 3, 16, 23, 10, 26, 22, 25, 22, 15, 0)
s = 67: (0, 8, 4, 17, 18, 11, 33, 40, 25, 18, 22, 0)
s = 68: (0, 12, 5, 26, 26, 9, 42, 43, 19, 26, 16, 0)
s = 69: (0, 11, 3, 28, 27, 10, 28, 22, 10, 21, 14, 0)
s = 70: (0, 10, 3, 11, 21, 10, 39, 28, 11, 30, 23, 0)
s = 71: (0, 6, 5, 21, 35, 7, 29, 27, 11, 39, 18, 0)
s = 72: (0, 12, 5, 10, 32, 14, 43, 25, 20, 30, 31, 0)
s = 73: (0, 8, 6, 21, 30, 11, 23, 40, 14, 35, 22, 0)
s = 74: (0, 9, 4, 27, 34, 11, 34, 24, 12, 34, 14, 0)
s = 75: (0, 8, 4, 13, 26, 10, 42, 32, 16, 22, 27, 0)
s = 76: (0, 12, 5, 12, 24, 11, 49, 29, 21, 22, 10, 0)
s = 77: (0, 8, 4, 14, 24, 9, 26, 26, 19, 29, 16, 0)
s = 78: (0, 9, 5, 25, 18, 13, 31, 33, 17, 32, 12, 0)
s = 79: (0, 8, 5, 20, 21, 7, 42, 21, 20, 19, 14, 0)
s = 80: (0, 9, 6, 19, 20, 15, 33, 28, 17, 28, 17, 0)
s = 81: (0, 13, 7, 15, 25, 15, 36, 22, 30, 21, 22, 0)
s = 82: (0, 8, 3, 16, 26, 8, 33, 33, 12, 39, 18, 0)
s = 83: (0, 10, 4, 14, 22, 12, 57, 30, 18, 27, 29, 0)
s = 84: (0, 8, 6, 21, 30, 9, 40, 18, 13, 25, 11, 0)
s = 85: (0, 8, 4, 16, 23, 7, 34, 34, 16, 30, 12, 0)
s = 86: (0, 8, 4, 29, 30, 8, 42, 29, 19, 26, 27, 0)
s = 87: (0, 8, 5, 17, 26, 7, 35, 22, 9, 31, 12, 0)
s = 88: (0, 7, 4, 15, 20, 12, 28, 22, 16, 21, 19, 0)
s = 89: (0, 7, 4, 15, 19, 14, 41, 33, 14, 29, 21, 0)
s = 90: (0, 8, 5, 23, 20, 6, 37, 34, 13, 17, 12, 0)
s = 91: (0, 5, 3, 14, 38, 10, 31, 21, 16, 30, 13, 0)
s = 92: (0, 6, 6, 13, 22, 9, 51, 22, 12, 28, 19, 0)
s = 93: (0, 11, 3, 25, 15, 6, 24, 19, 21, 27, 11, 0)
s = 94: (0, 7, 3, 15, 13, 11, 31, 28, 16, 20, 28, 0)
s = 95: (0, 8, 5, 21, 30, 11, 26, 37, 25, 31, 11, 0)
s = 96: (0, 9, 3, 15, 21, 10, 44, 26, 14, 37, 22, 0)
s = 97: (0, 7, 4, 20, 20, 8, 28, 23, 14, 38, 12, 0)
s = 98: (0, 8, 4, 21, 28, 8, 48, 26, 12, 41, 17, 0)
s = 99: (0, 10, 4, 21, 14, 8, 20, 27, 25, 30, 14, 0)
s = 100: (0, 11, 4, 19, 29, 8, 41, 19, 17, 18, 21, 0)
s = 101: (0, 9, 6, 12, 29, 14, 49, 34, 31, 42, 17, 0)
s = 102: (0, 10, 6, 18, 33, 9, 35, 38, 15, 37, 12, 0)
s = 103: (0, 12, 5, 25, 20, 7, 32, 27, 23, 31, 21, 0)
s = 104: (0, 6, 4, 13, 18, 7, 30, 25, 12, 36, 29, 0)
s = 105: (0, 6, 6, 12, 31, 12, 21, 25, 11, 23, 15, 0)
s = 106: (0, 6, 5, 19, 20, 11, 38, 31, 12, 18, 13, 0)
s = 107: (0, 9, 7, 16, 28, 9, 39, 26, 17, 50, 14, 0)
s = 108: (0, 5, 4, 16, 20, 8, 32, 25, 22, 39, 21, 0)
s = 109: (0, 13, 4, 27, 15, 12, 31, 28, 22, 35, 23, 0)
s = 110: (0, 7, 4, 24, 18, 9, 34, 39, 21, 28, 15, 0)
s = 111: (0, 13, 5, 23, 20, 13, 46, 18, 28, 32, 16, 0)
s = 112: (0, 6, 5, 11, 25, 6, 30, 23, 14, 43, 25, 0)
s = 113: (0, 9, 6, 20, 16, 12, 28, 35, 18, 27, 30, 0)
s = 114: (0, 8, 3, 16, 32, 9, 25, 30, 18, 41, 11, 0)
s = 115: (0, 6, 7, 18, 21, 8, 45, 22, 21, 18, 21, 0)
s = 116: (0, 10, 3, 21, 32, 9, 35, 35, 23, 25, 13, 0)
s = 117: (0, 6, 5, 29, 19, 11, 44, 29, 13, 36, 25, 0)
s = 118: (0, 7, 3, 20, 22, 8, 43, 25, 18, 23, 15, 0)
s = 119: (0, 7, 6, 11, 21, 11, 23, 21, 20, 27, 19, 0)
s = 120: (0, 5, 3, 13, 34, 10, 40, 21, 11, 22, 25, 0)
s = 121: (0, 10, 3, 19, 32, 9, 32, 37, 15, 29, 18, 0)
s = 122: (0, 5, 4, 15, 20, 10, 39, 41, 21, 33, 15, 0)
s = 123: (0, 14, 6, 23, 29, 7, 27, 18, 12, 28, 19, 0)
s = 124: (0, 9, 5, 20, 29, 12, 38, 19, 14, 25, 22, 0)
s = 125: (0, 5, 5, 19, 31, 9, 34, 27, 12, 40, 16, 0)
s = 126: (0, 8, 4, 26, 34, 7, 36, 29, 12, 25, 20, 0)
s = 127: (0, 6, 5, 23, 20, 7, 39, 21, 11, 31, 20, 0)
s = 128: (0, 8, 4, 17, 41, 16, 22, 23, 17, 24, 21, 0)
s = 129: (0, 13, 5, 15, 19, 7, 25, 28, 19, 30, 26, 0)
s = 130: (0, 5, 4, 13, 27, 7, 29, 30, 14, 19, 13, 0)
s = 131: (0, 6, 5, 20, 27, 9, 31, 29, 21, 23, 20, 0)
s = 132: (0, 10, 4, 23, 38, 10, 48, 49, 16, 23, 16, 0)
s = 133: (0, 10, 3, 17, 37, 8, 27, 33, 15, 32, 29, 0)
s = 134: (0, 9, 4, 12, 19, 13, 36, 42, 13, 33, 17, 0)
s = 135: (0, 9, 6, 15, 22, 16, 40, 32, 17, 32, 23, 0)
s = 136: (0, 9, 3, 24, 29, 5, 25, 31, 17, 44, 21, 0)
s = 137: (0, 7, 4, 12, 38, 10, 42, 30, 14, 23, 18, 0)
s = 138: (0, 7, 3, 26, 28, 12, 37, 28, 21, 23, 15, 0)
s = 139: (0, 11, 7, 28, 14, 10, 29, 37, 14, 26, 19, 0)
s = 140: (0, 7, 4, 14, 23, 8, 28, 36, 13, 41, 12, 0)
s = 141: (0, 8, 4, 17, 26, 7, 53, 37, 9, 33, 30, 0)
s = 142: (0, 8, 4, 13, 33, 8, 50, 32, 11, 28, 18, 0)
s = 143: (0, 6, 5, 16, 16, 8, 27, 29, 15, 26, 12, 0)
s = 144: (0, 7, 5, 23, 15, 12, 31, 41, 13, 19, 24, 0)
s = 145: (0, 7, 7, 17, 29, 8, 35, 21, 13, 28, 22, 0)
s = 146: (0, 8, 4, 12, 24, 13, 34, 19, 9, 21, 22, 0)
s = 147: (0, 9, 4, 19, 21, 6, 48, 25, 16, 31, 14, 0)
s = 148: (0, 5, 6, 17, 27, 9, 34, 29, 17, 35, 23, 0)
s = 149: (0, 8, 5, 15, 29, 11, 47, 24, 21, 30, 20, 0)
s = 150: (0, 9, 4, 19, 21, 9, 32, 19, 12, 44, 13, 0)
s = 151: (0, 6, 5, 18, 33, 10, 29, 18, 19, 45, 15, 0)
s = 152: (0, 8, 7, 11, 41, 8, 35, 31, 28, 30, 11, 0)
s = 153: (0, 10, 5, 16, 19, 7, 20, 31, 26, 21, 17, 0)
s = 154: (0, 11, 5, 15, 20, 7, 20, 32, 21, 18, 16, 0)
s = 155: (0, 6, 3, 17, 34, 9, 29, 39, 16, 45, 12, 0)
s = 156: (0, 5, 5, 18, 22, 9, 42, 28, 17, 25, 16, 0)
s = 157: (0, 8, 4, 16, 32, 8, 38, 36, 14, 32, 22, 0)
s = 158: (0, 7, 6, 24, 35, 13, 31, 26, 10, 46, 12, 0)
s = 159: (0, 6, 5, 14, 21, 7, 36, 32, 11, 44, 21, 0)
s = 160: (0, 10, 3, 16, 30, 15, 31, 19, 21, 42, 24, 0)
s = 161: (0, 11, 3, 14, 21, 9, 25, 36, 9, 21, 15, 0)
s = 162: (0, 8, 3, 20, 17, 12, 47, 42, 16, 40, 20, 0)
s = 163: (0, 8, 3, 13, 28, 9, 33, 28, 13, 32, 15, 0)
s = 164: (0, 10, 3, 15, 16, 12, 31, 24, 12, 43, 25, 0)
s = 165: (0, 8, 5, 23, 34, 16, 43, 20, 13, 47, 19, 0)
s = 166: (0, 8, 3, 18, 33, 6, 31, 27, 15, 18, 23, 0)
s = 167: (0, 7, 3, 14, 36, 7, 38, 30, 15, 25, 20, 0)
s = 168: (0, 6, 6, 18, 32, 11, 36, 32, 16, 36, 18, 0)
s = 169: (0, 9, 6, 13, 27, 9, 36, 36, 13, 34, 12, 0)
s = 170: (0, 9, 4, 14, 18, 16, 25, 25, 15, 27, 21, 0)
s = 171: (0, 9, 4, 15, 36, 7, 43, 25, 27, 31, 20, 0)
s = 172: (0, 7, 6, 21, 30, 8, 40, 28, 13, 27, 21, 0)
s = 173: (0, 12, 3, 13, 28, 9, 38, 29, 16, 35, 23, 0)
s = 174: (0, 7, 3, 19, 16, 11, 27, 45, 14, 26, 13, 0)
s = 175: (0, 9, 6, 15, 31, 8, 36, 25, 15, 21, 19, 0)
s = 176: (0, 7, 8, 12, 16, 7, 28, 20, 19, 25, 27, 0)
s = 177: (0, 5, 5, 23, 22, 7, 45, 42, 11, 29, 17, 0)
s = 178: (0, 10, 5, 13, 22, 9, 38, 30, 10, 27, 14, 0)
s = 179: (0, 5, 5, 19, 29, 7, 39, 22, 9, 24, 13, 0)
s = 180: (0, 10, 3, 24, 15, 11, 33, 27, 18, 35, 15, 0)
s = 181: (0, 6, 3, 30, 19, 9, 33, 39, 10, 29, 18, 0)
s = 182: (0, 11, 6, 20, 16, 9, 37, 27, 11, 30, 17, 0)
s = 183: (0, 10, 3, 11, 23, 15, 37, 21, 11, 56, 22, 0)
s = 184: (0, 14, 3, 19, 39, 11, 37, 26, 14, 33, 12, 0)
s = 185: (0, 6, 4, 25, 33, 11, 28, 27, 15, 28, 27, 0)
s = 186: (0, 9, 6, 13, 22, 11, 49, 21, 11, 42, 17, 0)
s = 187: (0, 6, 3, 12, 27, 6, 27, 35, 9, 31, 16, 0)
s = 188: (0, 6, 5, 15, 24, 11, 55, 33, 12, 32, 13, 0)
s = 189: (0, 7, 5, 30, 22, 7, 36, 35, 20, 37, 28, 0)
s = 190: (0, 9, 5, 24, 17, 12, 42, 27, 13, 24, 26, 0)
s = 191: (0, 7, 4, 22, 31, 13, 29, 19, 16, 49, 16, 0)
s = 192: (0, 8, 4, 18, 25, 9, 35, 18, 23, 31, 15, 0)
s = 193: (0, 7, 3, 14, 15, 11, 35, 22, 27, 31, 14, 0)
s = 194: (0, 6, 7, 23, 23, 11, 35, 26, 23, 37, 17, 0)
s = 195: (0, 5, 6, 11, 25, 7, 43, 34, 16, 35, 16, 0)
s = 196: (0, 7, 5, 19, 23, 7, 30, 22, 19, 20, 22, 0)
s = 197: (0, 7, 3, 22, 27, 11, 50, 27, 19, 22, 20, 0)
s = 198: (0, 6, 5, 16, 33, 8, 33, 29, 11, 30, 17, 0)
s = 199: (0, 9, 4, 17, 28, 13, 31, 30, 18, 37, 20, 0)
s = 200: (0, 9, 5, 29, 24, 9, 37, 34, 22, 27, 26, 0)
------------------------------------------------------------------------
RESOURCE k = 2
s = 1: (0, 0, 0, 6, 0, 6, 55, 60, 0, 16, 16, 0)
s = 2: (0, 0, 0, 6, 0, 5, 56, 87, 0, 38, 38, 0)
s = 3: (0, 0, 0, 5, 0, 12, 26, 57, 0, 30, 19, 0)
s = 4: (0, 0, 0, 8, 0, 8, 28, 60, 0, 32, 18, 0)
s = 5: (0, 0, 0, 10, 0, 12, 64, 76, 0, 19, 28, 0)
s = 6: (0, 0, 0, 9, 0, 6, 47, 87, 0, 23, 29, 0)
s = 7: (0, 0, 0, 7, 0, 7, 56, 36, 0, 17, 45, 0)
s = 8: (0, 0, 0, 7, 0, 12, 34, 65, 0, 38, 23, 0)
s = 9: (0, 0, 0, 9, 0, 8, 46, 57, 0, 21, 39, 0)
s = 10: (0, 0, 0, 11, 0, 11, 34, 77, 0, 23, 26, 0)
s = 11: (0, 0, 0, 5, 0, 13, 41, 56, 0, 15, 16, 0)
s = 12: (0, 0, 0, 10, 0, 7, 51, 46, 0, 15, 35, 0)
s = 13: (0, 0, 0, 10, 0, 9, 44, 89, 0, 17, 33, 0)
s = 14: (0, 0, 0, 9, 0, 6, 66, 64, 0, 32, 29, 0)
s = 15: (0, 0, 0, 8, 0, 6, 49, 83, 0, 28, 27, 0)
s = 16: (0, 0, 0, 12, 0, 12, 60, 50, 0, 30, 17, 0)
s = 17: (0, 0, 0, 9, 0, 8, 37, 66, 0, 26, 37, 0)
s = 18: (0, 0, 0, 7, 0, 5, 28, 65, 0, 19, 25, 0)
s = 19: (0, 0, 0, 6, 0, 9, 29, 80, 0, 23, 33, 0)
s = 20: (0, 0, 0, 9, 0, 7, 60, 63, 0, 18, 41, 0)
s = 21: (0, 0, 0, 7, 0, 11, 39, 64, 0, 34, 36, 0)
s = 22: (0, 0, 0, 8, 0, 5, 36, 65, 0, 19, 22, 0)
s = 23: (0, 0, 0, 5, 0, 6, 46, 100, 0, 40, 35, 0)
s = 24: (0, 0, 0, 7, 0, 10, 51, 70, 0, 18, 23, 0)
s = 25: (0, 0, 0, 7, 0, 6, 39, 78, 0, 18, 19, 0)
s = 26: (0, 0, 0, 11, 0, 9, 89, 86, 0, 18, 20, 0)
s = 27: (0, 0, 0, 8, 0, 8, 42, 45, 0, 33, 23, 0)
s = 28: (0, 0, 0, 11, 0, 10, 59, 68, 0, 28, 19, 0)
s = 29: (0, 0, 0, 8, 0, 8, 32, 48, 0, 18, 21, 0)
s = 30: (0, 0, 0, 7, 0, 8, 41, 54, 0, 26, 20, 0)
s = 31: (0, 0, 0, 14, 0, 8, 49, 68, 0, 20, 39, 0)
s = 32: (0, 0, 0, 12, 0, 6, 53, 63, 0, 16, 32, 0)
s = 33: (0, 0, 0, 8, 0, 5, 54, 94, 0, 37, 42, 0)
s = 34: (0, 0, 0, 6, 0, 6, 33, 52, 0, 17, 26, 0)
s = 35: (0, 0, 0, 7, 0, 10, 32, 76, 0, 22, 17, 0)
s = 36: (0, 0, 0, 12, 0, 9, 42, 105, 0, 32, 38, 0)
s = 37: (0, 0, 0, 7, 0, 14, 51, 92, 0, 28, 17, 0)
s = 38: (0, 0, 0, 8, 0, 8, 28, 49, 0, 28, 31, 0)
s = 39: (0, 0, 0, 11, 0, 10, 37, 81, 0, 28, 27, 0)
s = 40: (0, 0, 0, 7, 0, 7, 34, 57, 0, 14, 27, 0)
s = 41: (0, 0, 0, 6, 0, 8, 79, 60, 0, 30, 23, 0)
s = 42: (0, 0, 0, 11, 0, 11, 40, 73, 0, 24, 18, 0)
s = 43: (0, 0, 0, 8, 0, 9, 35, 81, 0, 18, 23, 0)
s = 44: (0, 0, 0, 10, 0, 8, 35, 48, 0, 23, 21, 0)
s = 45: (0, 0, 0, 11, 0, 13, 54, 61, 0, 24, 28, 0)
s = 46: (0, 0, 0, 13, 0, 10, 51, 105, 0, 21, 25, 0)
s = 47: (0, 0, 0, 7, 0, 9, 28, 61, 0, 26, 28, 0)
s = 48: (0, 0, 0, 6, 0, 6, 65, 73, 0, 19, 27, 0)
s = 49: (0, 0, 0, 11, 0, 8, 29, 78, 0, 17, 25, 0)
s = 50: (0, 0, 0, 8, 0, 9, 62, 71, 0, 23, 42, 0)
s = 51: (0, 0, 0, 9, 0, 7, 28, 61, 0, 13, 38, 0)
s = 52: (0, 0, 0, 6, 0, 7, 57, 58, 0, 39, 39, 0)
s = 53: (0, 0, 0, 6, 0, 13, 36, 77, 0, 15, 25, 0)
s = 54: (0, 0, 0, 8, 0, 7, 27, 44, 0, 29, 26, 0)
s = 55: (0, 0, 0, 8, 0, 7, 46, 40, 0, 25, 31, 0)
s = 56: (0, 0, 0, 7, 0, 8, 32, 75, 0, 18, 17, 0)
s = 57: (0, 0, 0, 8, 0, 5, 44, 93, 0, 18, 35, 0)
s = 58: (0, 0, 0, 5, 0, 13, 31, 43, 0, 16, 19, 0)
s = 59: (0, 0, 0, 10, 0, 7, 32, 48, 0, 34, 42, 0)
s = 60: (0, 0, 0, 6, 0, 12, 37, 55, 0, 28, 26, 0)
s = 61: (0, 0, 0, 9, 0, 7, 63, 60, 0, 17, 30, 0)
s = 62: (0, 0, 0, 11, 0, 8, 39, 48, 0, 29, 17, 0)
s = 63: (0, 0, 0, 7, 0, 11, 63, 53, 0, 23, 19, 0)
s = 64: (0, 0, 0, 11, 0, 8, 52, 53, 0, 18, 22, 0)
s = 65: (0, 0, 0, 11, 0, 9, 39, 42, 0, 19, 32, 0)
s = 66: (0, 0, 0, 8, 0, 9, 33, 50, 0, 18, 22, 0)
s = 67: (0, 0, 0, 8, 0, 10, 42, 90, 0, 15, 33, 0)
s = 68: (0, 0, 0, 12, 0, 8, 54, 96, 0, 21, 23, 0)
s = 69: (0, 0, 0, 13, 0, 9, 36, 48, 0, 17, 21, 0)
s = 70: (0, 0, 0, 5, 0, 9, 50, 62, 0, 24, 35, 0)
s = 71: (0, 0, 0, 10, 0, 6, 37, 60, 0, 31, 27, 0)
s = 72: (0, 0, 0, 5, 0, 12, 56, 55, 0, 24, 47, 0)
s = 73: (0, 0, 0, 9, 0, 9, 29, 90, 0, 28, 33, 0)
s = 74: (0, 0, 0, 12, 0, 10, 44, 54, 0, 27, 21, 0)
s = 75: (0, 0, 0, 6, 0, 9, 54, 71, 0, 18, 40, 0)
s = 76: (0, 0, 0, 6, 0, 10, 63, 64, 0, 18, 15, 0)
s = 77: (0, 0, 0, 7, 0, 8, 33, 59, 0, 23, 24, 0)
s = 78: (0, 0, 0, 11, 0, 11, 40, 73, 0, 26, 18, 0)
s = 79: (0, 0, 0, 9, 0, 6, 53, 46, 0, 15, 20, 0)
s = 80: (0, 0, 0, 9, 0, 14, 43, 63, 0, 22, 26, 0)
s = 81: (0, 0, 0, 7, 0, 13, 47, 48, 0, 17, 33, 0)
s = 82: (0, 0, 0, 7, 0, 7, 43, 73, 0, 31, 26, 0)
s = 83: (0, 0, 0, 7, 0, 10, 73, 66, 0, 22, 43, 0)
s = 84: (0, 0, 0, 10, 0, 8, 51, 39, 0, 20, 16, 0)
s = 85: (0, 0, 0, 7, 0, 6, 43, 75, 0, 24, 18, 0)
s = 86: (0, 0, 0, 13, 0, 7, 54, 64, 0, 21, 40, 0)
s = 87: (0, 0, 0, 8, 0, 6, 45, 48, 0, 25, 17, 0)
s = 88: (0, 0, 0, 7, 0, 10, 36, 50, 0, 17, 28, 0)
s = 89: (0, 0, 0, 7, 0, 12, 53, 74, 0, 23, 32, 0)
s = 90: (0, 0, 0, 11, 0, 6, 48, 77, 0, 14, 17, 0)
s = 91: (0, 0, 0, 6, 0, 9, 40, 48, 0, 24, 19, 0)
s = 92: (0, 0, 0, 6, 0, 8, 66, 49, 0, 22, 28, 0)
s = 93: (0, 0, 0, 12, 0, 6, 31, 41, 0, 22, 17, 0)
s = 94: (0, 0, 0, 7, 0, 10, 40, 62, 0, 16, 42, 0)
s = 95: (0, 0, 0, 10, 0, 10, 34, 82, 0, 25, 17, 0)
s = 96: (0, 0, 0, 7, 0, 9, 56, 59, 0, 30, 33, 0)
s = 97: (0, 0, 0, 9, 0, 7, 36, 50, 0, 30, 18, 0)
s = 98: (0, 0, 0, 10, 0, 7, 62, 59, 0, 33, 26, 0)
s = 99: (0, 0, 0, 9, 0, 7, 26, 60, 0, 24, 20, 0)
s = 100: (0, 0, 0, 9, 0, 7, 52, 43, 0, 15, 31, 0)
s = 101: (0, 0, 0, 5, 0, 12, 62, 75, 0, 34, 25, 0)
s = 102: (0, 0, 0, 8, 0, 8, 45, 85, 0, 30, 18, 0)
s = 103: (0, 0, 0, 11, 0, 6, 40, 61, 0, 25, 31, 0)
s = 104: (0, 0, 0, 6, 0, 7, 38, 55, 0, 29, 44, 0)
s = 105: (0, 0, 0, 6, 0, 11, 26, 55, 0, 19, 22, 0)
s = 106: (0, 0, 0, 9, 0, 9, 49, 69, 0, 14, 19, 0)
s = 107: (0, 0, 0, 7, 0, 8, 50, 57, 0, 40, 20, 0)
s = 108: (0, 0, 0, 7, 0, 7, 40, 56, 0, 31, 31, 0)
s = 109: (0, 0, 0, 12, 0, 11, 40, 62, 0, 28, 35, 0)
s = 110: (0, 0, 0, 11, 0, 8, 43, 87, 0, 22, 22, 0)
s = 111: (0, 0, 0, 11, 0, 12, 59, 41, 0, 26, 24, 0)
s = 112: (0, 0, 0, 5, 0, 5, 39, 52, 0, 35, 37, 0)
s = 113: (0, 0, 0, 9, 0, 11, 36, 78, 0, 22, 44, 0)
s = 114: (0, 0, 0, 7, 0, 8, 32, 67, 0, 33, 16, 0)
s = 115: (0, 0, 0, 8, 0, 7, 58, 48, 0, 14, 31, 0)
s = 116: (0, 0, 0, 10, 0, 8, 45, 77, 0, 20, 20, 0)
s = 117: (0, 0, 0, 13, 0, 10, 57, 64, 0, 29, 38, 0)
s = 118: (0, 0, 0, 9, 0, 7, 55, 57, 0, 18, 22, 0)
s = 119: (0, 0, 0, 5, 0, 10, 30, 48, 0, 22, 28, 0)
s = 120: (0, 0, 0, 6, 0, 9, 51, 47, 0, 17, 38, 0)
s = 121: (0, 0, 0, 9, 0, 8, 41, 83, 0, 23, 26, 0)
s = 122: (0, 0, 0, 7, 0, 9, 50, 91, 0, 26, 23, 0)
s = 123: (0, 0, 0, 11, 0, 6, 34, 40, 0, 22, 28, 0)
s = 124: (0, 0, 0, 9, 0, 11, 48, 43, 0, 20, 33, 0)
s = 125: (0, 0, 0, 9, 0, 8, 43, 61, 0, 32, 24, 0)
s = 126: (0, 0, 0, 12, 0, 6, 46, 64, 0, 20, 29, 0)
s = 127: (0, 0, 0, 10, 0, 7, 50, 48, 0, 25, 30, 0)
s = 128: (0, 0, 0, 8, 0, 14, 28, 52, 0, 20, 31, 0)
s = 129: (0, 0, 0, 7, 0, 6, 32, 63, 0, 24, 39, 0)
s = 130: (0, 0, 0, 6, 0, 6, 37, 66, 0, 16, 19, 0)
s = 131: (0, 0, 0, 9, 0, 8, 39, 64, 0, 19, 30, 0)
s = 132: (0, 0, 0, 11, 0, 9, 62, 111, 0, 18, 23, 0)
s = 133: (0, 0, 0, 8, 0, 7, 34, 73, 0, 26, 44, 0)
s = 134: (0, 0, 0, 6, 0, 11, 47, 93, 0, 27, 25, 0)
s = 135: (0, 0, 0, 7, 0, 14, 51, 71, 0, 26, 35, 0)
s = 136: (0, 0, 0, 11, 0, 5, 32, 69, 0, 35, 31, 0)
s = 137: (0, 0, 0, 6, 0, 9, 54, 66, 0, 19, 27, 0)
s = 138: (0, 0, 0, 12, 0, 10, 48, 62, 0, 19, 22, 0)
s = 139: (0, 0, 0, 13, 0, 9, 38, 83, 0, 21, 28, 0)
s = 140: (0, 0, 0, 7, 0, 7, 36, 81, 0, 33, 18, 0)
s = 141: (0, 0, 0, 8, 0, 7, 68, 83, 0, 26, 44, 0)
s = 142: (0, 0, 0, 6, 0, 7, 64, 72, 0, 22, 27, 0)
s = 143: (0, 0, 0, 7, 0, 7, 34, 65, 0, 21, 17, 0)
s = 144: (0, 0, 0, 11, 0, 11, 39, 91, 0, 15, 36, 0)
s = 145: (0, 0, 0, 8, 0, 7, 45, 46, 0, 22, 33, 0)
s = 146: (0, 0, 0, 6, 0, 11, 43, 43, 0, 17, 33, 0)
s = 147: (0, 0, 0, 9, 0, 5, 62, 55, 0, 25, 21, 0)
s = 148: (0, 0, 0, 8, 0, 8, 44, 64, 0, 28, 34, 0)
s = 149: (0, 0, 0, 7, 0, 10, 60, 54, 0, 24, 30, 0)
s = 150: (0, 0, 0, 9, 0, 8, 40, 42, 0, 36, 19, 0)
s = 151: (0, 0, 0, 8, 0, 9, 38, 40, 0, 36, 22, 0)
s = 152: (0, 0, 0, 5, 0, 7, 45, 68, 0, 24, 17, 0)
s = 153: (0, 0, 0, 7, 0, 6, 26, 69, 0, 17, 26, 0)
s = 154: (0, 0, 0, 7, 0, 6, 26, 72, 0, 15, 24, 0)
s = 155: (0, 0, 0, 8, 0, 8, 38, 87, 0, 36, 18, 0)
s = 156: (0, 0, 0, 8, 0, 8, 54, 63, 0, 20, 24, 0)
s = 157: (0, 0, 0, 7, 0, 7, 49, 80, 0, 26, 32, 0)
s = 158: (0, 0, 0, 11, 0, 11, 40, 58, 0, 37, 17, 0)
s = 159: (0, 0, 0, 7, 0, 7, 46, 71, 0, 35, 31, 0)
s = 160: (0, 0, 0, 8, 0, 14, 40, 42, 0, 33, 35, 0)
s = 161: (0, 0, 0, 6, 0, 8, 32, 80, 0, 17, 22, 0)
s = 162: (0, 0, 0, 9, 0, 10, 60, 94, 0, 32, 30, 0)
s = 163: (0, 0, 0, 6, 0, 8, 43, 62, 0, 26, 22, 0)
s = 164: (0, 0, 0, 7, 0, 11, 40, 53, 0, 35, 38, 0)
s = 165: (0, 0, 0, 11, 0, 14, 56, 44, 0, 38, 28, 0)
s = 166: (0, 0, 0, 8, 0, 5, 40, 61, 0, 15, 34, 0)
s = 167: (0, 0, 0, 6, 0, 7, 49, 67, 0, 20, 30, 0)
s = 168: (0, 0, 0, 8, 0, 9, 47, 72, 0, 29, 26, 0)
s = 169: (0, 0, 0, 6, 0, 8, 47, 80, 0, 27, 18, 0)
s = 170: (0, 0, 0, 6, 0, 14, 32, 55, 0, 22, 31, 0)
s = 171: (0, 0, 0, 7, 0, 6, 55, 56, 0, 25, 30, 0)
s = 172: (0, 0, 0, 9, 0, 7, 51, 63, 0, 22, 31, 0)
s = 173: (0, 0, 0, 6, 0, 8, 49, 64, 0, 28, 34, 0)
s = 174: (0, 0, 0, 9, 0, 9, 34, 101, 0, 21, 20, 0)
s = 175: (0, 0, 0, 7, 0, 8, 46, 55, 0, 17, 28, 0)
s = 176: (0, 0, 0, 6, 0, 6, 36, 44, 0, 20, 40, 0)
s = 177: (0, 0, 0, 11, 0, 6, 58, 94, 0, 23, 25, 0)
s = 178: (0, 0, 0, 6, 0, 8, 48, 68, 0, 22, 20, 0)
s = 179: (0, 0, 0, 9, 0, 6, 50, 50, 0, 20, 20, 0)
s = 180: (0, 0, 0, 11, 0, 9, 43, 59, 0, 28, 22, 0)
s = 181: (0, 0, 0, 14, 0, 8, 42, 87, 0, 23, 27, 0)
s = 182: (0, 0, 0, 9, 0, 8, 48, 61, 0, 24, 25, 0)
s = 183: (0, 0, 0, 5, 0, 14, 48, 46, 0, 45, 33, 0)
s = 184: (0, 0, 0, 9, 0, 10, 48, 57, 0, 26, 18, 0)
s = 185: (0, 0, 0, 11, 0, 10, 35, 59, 0, 23, 41, 0)
s = 186: (0, 0, 0, 6, 0, 10, 63, 47, 0, 33, 25, 0)
s = 187: (0, 0, 0, 5, 0, 6, 35, 79, 0, 25, 24, 0)
s = 188: (0, 0, 0, 7, 0, 10, 70, 74, 0, 25, 20, 0)
s = 189: (0, 0, 0, 14, 0, 6, 46, 78, 0, 29, 42, 0)
s = 190: (0, 0, 0, 11, 0, 11, 54, 60, 0, 20, 38, 0)
s = 191: (0, 0, 0, 10, 0, 12, 38, 43, 0, 39, 23, 0)
s = 192: (0, 0, 0, 8, 0, 8, 45, 39, 0, 25, 22, 0)
s = 193: (0, 0, 0, 7, 0, 10, 45, 48, 0, 25, 21, 0)
s = 194: (0, 0, 0, 10, 0, 10, 44, 59, 0, 30, 26, 0)
s = 195: (0, 0, 0, 5, 0, 6, 55, 76, 0, 28, 23, 0)
s = 196: (0, 0, 0, 9, 0, 6, 39, 50, 0, 16, 33, 0)
s = 197: (0, 0, 0, 10, 0, 10, 64, 61, 0, 17, 29, 0)
s = 198: (0, 0, 0, 7, 0, 8, 42, 65, 0, 24, 25, 0)
s = 199: (0, 0, 0, 8, 0, 12, 40, 66, 0, 30, 29, 0)
s = 200: (0, 0, 0, 13, 0, 8, 48, 76, 0, 21, 39, 0)
------------------------------------------------------------------------
RESOURCE k = 3
s = 1: (0, 37, 13, 0, 35, 0, 0, 0, 26, 0, 0, 0)
s = 2: (0, 34, 8, 0, 62, 0, 0, 0, 15, 0, 0, 0)
s = 3: (0, 24, 7, 0, 53, 0, 0, 0, 38, 0, 0, 0)
s = 4: (0, 22, 7, 0, 60, 0, 0, 0, 20, 0, 0, 0)
s = 5: (0, 22, 8, 0, 60, 0, 0, 0, 21, 0, 0, 0)
s = 6: (0, 16, 5, 0, 63, 0, 0, 0, 21, 0, 0, 0)
s = 7: (0, 54, 5, 0, 91, 0, 0, 0, 20, 0, 0, 0)
s = 8: (0, 21, 9, 0, 55, 0, 0, 0, 21, 0, 0, 0)
s = 9: (0, 36, 8, 0, 60, 0, 0, 0, 24, 0, 0, 0)
s = 10: (0, 23, 5, 0, 36, 0, 0, 0, 24, 0, 0, 0)
s = 11: (0, 25, 7, 0, 50, 0, 0, 0, 23, 0, 0, 0)
s = 12: (0, 37, 5, 0, 42, 0, 0, 0, 22, 0, 0, 0)
s = 13: (0, 20, 7, 0, 39, 0, 0, 0, 22, 0, 0, 0)
s = 14: (0, 20, 10, 0, 40, 0, 0, 0, 30, 0, 0, 0)
s = 15: (0, 38, 9, 0, 55, 0, 0, 0, 15, 0, 0, 0)
s = 16: (0, 29, 7, 0, 62, 0, 0, 0, 32, 0, 0, 0)
s = 17: (0, 42, 7, 0, 60, 0, 0, 0, 31, 0, 0, 0)
s = 18: (0, 24, 10, 0, 47, 0, 0, 0, 15, 0, 0, 0)
s = 19: (0, 31, 7, 0, 46, 0, 0, 0, 33, 0, 0, 0)
s = 20: (0, 29, 5, 0, 56, 0, 0, 0, 18, 0, 0, 0)
s = 21: (0, 39, 6, 0, 66, 0, 0, 0, 22, 0, 0, 0)
s = 22: (0, 24, 8, 0, 43, 0, 0, 0, 17, 0, 0, 0)
s = 23: (0, 28, 6, 0, 44, 0, 0, 0, 19, 0, 0, 0)
s = 24: (0, 24, 6, 0, 78, 0, 0, 0, 34, 0, 0, 0)
s = 25: (0, 30, 5, 0, 33, 0, 0, 0, 26, 0, 0, 0)
s = 26: (0, 27, 12, 0, 65, 0, 0, 0, 16, 0, 0, 0)
s = 27: (0, 38, 5, 0, 70, 0, 0, 0, 22, 0, 0, 0)
s = 28: (0, 24, 4, 0, 79, 0, 0, 0, 21, 0, 0, 0)
s = 29: (0, 25, 8, 0, 41, 0, 0, 0, 15, 0, 0, 0)
s = 30: (0, 19, 11, 0, 39, 0, 0, 0, 16, 0, 0, 0)
s = 31: (0, 18, 4, 0, 38, 0, 0, 0, 17, 0, 0, 0)
s = 32: (0, 22, 9, 0, 47, 0, 0, 0, 23, 0, 0, 0)
s = 33: (0, 15, 9, 0, 53, 0, 0, 0, 16, 0, 0, 0)
s = 34: (0, 20, 12, 0, 52, 0, 0, 0, 22, 0, 0, 0)
s = 35: (0, 17, 11, 0, 66, 0, 0, 0, 24, 0, 0, 0)
s = 36: (0, 23, 10, 0, 38, 0, 0, 0, 27, 0, 0, 0)
s = 37: (0, 22, 7, 0, 73, 0, 0, 0, 15, 0, 0, 0)
s = 38: (0, 48, 5, 0, 44, 0, 0, 0, 18, 0, 0, 0)
s = 39: (0, 40, 6, 0, 34, 0, 0, 0, 29, 0, 0, 0)
s = 40: (0, 25, 6, 0, 41, 0, 0, 0, 22, 0, 0, 0)
s = 41: (0, 21, 7, 0, 54, 0, 0, 0, 13, 0, 0, 0)
s = 42: (0, 22, 7, 0, 59, 0, 0, 0, 17, 0, 0, 0)
s = 43: (0, 25, 12, 0, 64, 0, 0, 0, 16, 0, 0, 0)
s = 44: (0, 39, 9, 0, 58, 0, 0, 0, 18, 0, 0, 0)
s = 45: (0, 39, 8, 0, 59, 0, 0, 0, 23, 0, 0, 0)
s = 46: (0, 29, 7, 0, 31, 0, 0, 0, 30, 0, 0, 0)
s = 47: (0, 17, 8, 0, 37, 0, 0, 0, 28, 0, 0, 0)
s = 48: (0, 18, 7, 0, 42, 0, 0, 0, 18, 0, 0, 0)
s = 49: (0, 45, 8, 0, 55, 0, 0, 0, 24, 0, 0, 0)
s = 50: (0, 19, 10, 0, 51, 0, 0, 0, 18, 0, 0, 0)
s = 51: (0, 17, 6, 0, 34, 0, 0, 0, 27, 0, 0, 0)
s = 52: (0, 18, 8, 0, 35, 0, 0, 0, 24, 0, 0, 0)
s = 53: (0, 35, 9, 0, 66, 0, 0, 0, 33, 0, 0, 0)
s = 54: (0, 24, 7, 0, 40, 0, 0, 0, 22, 0, 0, 0)
s = 55: (0, 21, 12, 0, 28, 0, 0, 0, 25, 0, 0, 0)
s = 56: (0, 36, 10, 0, 56, 0, 0, 0, 17, 0, 0, 0)
s = 57: (0, 45, 7, 0, 50, 0, 0, 0, 21, 0, 0, 0)
s = 58: (0, 35, 11, 0, 66, 0, 0, 0, 25, 0, 0, 0)
s = 59: (0, 24, 8, 0, 72, 0, 0, 0, 12, 0, 0, 0)
s = 60: (0, 31, 5, 0, 37, 0, 0, 0, 36, 0, 0, 0)
s = 61: (0, 41, 5, 0, 37, 0, 0, 0, 27, 0, 0, 0)
s = 62: (0, 23, 8, 0, 40, 0, 0, 0, 14, 0, 0, 0)
s = 63: (0, 25, 9, 0, 54, 0, 0, 0, 22, 0, 0, 0)
s = 64: (0, 29, 5, 0, 40, 0, 0, 0, 26, 0, 0, 0)
s = 65: (0, 46, 7, 0, 63, 0, 0, 0, 26, 0, 0, 0)
s = 66: (0, 32, 6, 0, 45, 0, 0, 0, 31, 0, 0, 0)
s = 67: (0, 28, 7, 0, 36, 0, 0, 0, 31, 0, 0, 0)
s = 68: (0, 39, 8, 0, 51, 0, 0, 0, 23, 0, 0, 0)
s = 69: (0, 38, 6, 0, 54, 0, 0, 0, 13, 0, 0, 0)
s = 70: (0, 33, 5, 0, 42, 0, 0, 0, 13, 0, 0, 0)
s = 71: (0, 19, 8, 0, 70, 0, 0, 0, 14, 0, 0, 0)
s = 72: (0, 42, 8, 0, 63, 0, 0, 0, 25, 0, 0, 0)
s = 73: (0, 27, 11, 0, 60, 0, 0, 0, 17, 0, 0, 0)
s = 74: (0, 30, 7, 0, 67, 0, 0, 0, 15, 0, 0, 0)
s = 75: (0, 28, 6, 0, 51, 0, 0, 0, 20, 0, 0, 0)
s = 76: (0, 40, 8, 0, 47, 0, 0, 0, 26, 0, 0, 0)
s = 77: (0, 26, 7, 0, 47, 0, 0, 0, 24, 0, 0, 0)
s = 78: (0, 29, 8, 0, 35, 0, 0, 0, 21, 0, 0, 0)
s = 79: (0, 26, 8, 0, 42, 0, 0, 0, 25, 0, 0, 0)
s = 80: (0, 32, 10, 0, 39, 0, 0, 0, 22, 0, 0, 0)
s = 81: (0, 46, 12, 0, 49, 0, 0, 0, 37, 0, 0, 0)
s = 82: (0, 26, 5, 0, 52, 0, 0, 0, 15, 0, 0, 0)
s = 83: (0, 32, 7, 0, 43, 0, 0, 0, 22, 0, 0, 0)
s = 84: (0, 27, 10, 0, 60, 0, 0, 0, 16, 0, 0, 0)
s = 85: (0, 27, 7, 0, 45, 0, 0, 0, 19, 0, 0, 0)
s = 86: (0, 26, 6, 0, 60, 0, 0, 0, 24, 0, 0, 0)
s = 87: (0, 28, 8, 0, 51, 0, 0, 0, 11, 0, 0, 0)
s = 88: (0, 25, 6, 0, 40, 0, 0, 0, 20, 0, 0, 0)
s = 89: (0, 23, 7, 0, 37, 0, 0, 0, 18, 0, 0, 0)
s = 90: (0, 28, 8, 0, 39, 0, 0, 0, 16, 0, 0, 0)
s = 91: (0, 18, 5, 0, 76, 0, 0, 0, 20, 0, 0, 0)
s = 92: (0, 20, 10, 0, 44, 0, 0, 0, 15, 0, 0, 0)
s = 93: (0, 36, 5, 0, 30, 0, 0, 0, 26, 0, 0, 0)
s = 94: (0, 22, 6, 0, 26, 0, 0, 0, 20, 0, 0, 0)
s = 95: (0, 27, 9, 0, 60, 0, 0, 0, 31, 0, 0, 0)
s = 96: (0, 30, 4, 0, 41, 0, 0, 0, 18, 0, 0, 0)
s = 97: (0, 24, 6, 0, 40, 0, 0, 0, 17, 0, 0, 0)
s = 98: (0, 28, 6, 0, 55, 0, 0, 0, 15, 0, 0, 0)
s = 99: (0, 32, 7, 0, 28, 0, 0, 0, 31, 0, 0, 0)
s = 100: (0, 39, 7, 0, 58, 0, 0, 0, 21, 0, 0, 0)
s = 101: (0, 31, 9, 0, 58, 0, 0, 0, 38, 0, 0, 0)
s = 102: (0, 33, 10, 0, 66, 0, 0, 0, 19, 0, 0, 0)
s = 103: (0, 41, 8, 0, 40, 0, 0, 0, 29, 0, 0, 0)
s = 104: (0, 20, 6, 0, 36, 0, 0, 0, 15, 0, 0, 0)
s = 105: (0, 19, 10, 0, 62, 0, 0, 0, 14, 0, 0, 0)
s = 106: (0, 20, 8, 0, 39, 0, 0, 0, 15, 0, 0, 0)
s = 107: (0, 30, 12, 0, 56, 0, 0, 0, 21, 0, 0, 0)
s = 108: (0, 17, 7, 0, 39, 0, 0, 0, 27, 0, 0, 0)
s = 109: (0, 45, 6, 0, 30, 0, 0, 0, 28, 0, 0, 0)
s = 110: (0, 24, 6, 0, 36, 0, 0, 0, 26, 0, 0, 0)
s = 111: (0, 44, 8, 0, 39, 0, 0, 0, 35, 0, 0, 0)
s = 112: (0, 21, 8, 0, 49, 0, 0, 0, 17, 0, 0, 0)
s = 113: (0, 30, 10, 0, 31, 0, 0, 0, 22, 0, 0, 0)
s = 114: (0, 26, 5, 0, 63, 0, 0, 0, 23, 0, 0, 0)
s = 115: (0, 18, 11, 0, 41, 0, 0, 0, 27, 0, 0, 0)
s = 116: (0, 35, 5, 0, 64, 0, 0, 0, 29, 0, 0, 0)
s = 117: (0, 19, 8, 0, 38, 0, 0, 0, 16, 0, 0, 0)
s = 118: (0, 23, 5, 0, 44, 0, 0, 0, 22, 0, 0, 0)
s = 119: (0, 24, 10, 0, 41, 0, 0, 0, 25, 0, 0, 0)
s = 120: (0, 17, 6, 0, 67, 0, 0, 0, 14, 0, 0, 0)
s = 121: (0, 34, 4, 0, 63, 0, 0, 0, 18, 0, 0, 0)
s = 122: (0, 16, 7, 0, 40, 0, 0, 0, 26, 0, 0, 0)
s = 123: (0, 48, 10, 0, 58, 0, 0, 0, 14, 0, 0, 0)
s = 124: (0, 31, 9, 0, 58, 0, 0, 0, 18, 0, 0, 0)
s = 125: (0, 17, 9, 0, 61, 0, 0, 0, 15, 0, 0, 0)
s = 126: (0, 26, 6, 0, 67, 0, 0, 0, 15, 0, 0, 0)
s = 127: (0, 21, 8, 0, 39, 0, 0, 0, 13, 0, 0, 0)
s = 128: (0, 26, 7, 0, 81, 0, 0, 0, 21, 0, 0, 0)
s = 129: (0, 43, 9, 0, 38, 0, 0, 0, 24, 0, 0, 0)
s = 130: (0, 17, 7, 0, 53, 0, 0, 0, 17, 0, 0, 0)
s = 131: (0, 21, 9, 0, 53, 0, 0, 0, 26, 0, 0, 0)
s = 132: (0, 34, 7, 0, 76, 0, 0, 0, 19, 0, 0, 0)
s = 133: (0, 34, 5, 0, 73, 0, 0, 0, 19, 0, 0, 0)
s = 134: (0, 30, 7, 0, 38, 0, 0, 0, 17, 0, 0, 0)
s = 135: (0, 31, 10, 0, 43, 0, 0, 0, 21, 0, 0, 0)
s = 136: (0, 29, 5, 0, 58, 0, 0, 0, 21, 0, 0, 0)
s = 137: (0, 24, 6, 0, 76, 0, 0, 0, 18, 0, 0, 0)
s = 138: (0, 23, 5, 0, 56, 0, 0, 0, 27, 0, 0, 0)
s = 139: (0, 37, 12, 0, 27, 0, 0, 0, 17, 0, 0, 0)
s = 140: (0, 24, 6, 0, 46, 0, 0, 0, 17, 0, 0, 0)
s = 141: (0, 26, 6, 0, 52, 0, 0, 0, 11, 0, 0, 0)
s = 142: (0, 27, 7, 0, 65, 0, 0, 0, 14, 0, 0, 0)
s = 143: (0, 21, 9, 0, 32, 0, 0, 0, 19, 0, 0, 0)
s = 144: (0, 24, 8, 0, 29, 0, 0, 0, 17, 0, 0, 0)
s = 145: (0, 23, 12, 0, 58, 0, 0, 0, 16, 0, 0, 0)
s = 146: (0, 26, 6, 0, 48, 0, 0, 0, 11, 0, 0, 0)
s = 147: (0, 29, 6, 0, 41, 0, 0, 0, 20, 0, 0, 0)
s = 148: (0, 17, 9, 0, 54, 0, 0, 0, 21, 0, 0, 0)
s = 149: (0, 26, 8, 0, 57, 0, 0, 0, 26, 0, 0, 0)
s = 150: (0, 32, 6, 0, 41, 0, 0, 0, 15, 0, 0, 0)
s = 151: (0, 21, 8, 0, 66, 0, 0, 0, 24, 0, 0, 0)
s = 152: (0, 26, 11, 0, 81, 0, 0, 0, 35, 0, 0, 0)
s = 153: (0, 32, 8, 0, 38, 0, 0, 0, 32, 0, 0, 0)
s = 154: (0, 37, 9, 0, 40, 0, 0, 0, 26, 0, 0, 0)
s = 155: (0, 19, 5, 0, 67, 0, 0, 0, 20, 0, 0, 0)
s = 156: (0, 18, 8, 0, 44, 0, 0, 0, 22, 0, 0, 0)
s = 157: (0, 28, 6, 0, 63, 0, 0, 0, 17, 0, 0, 0)
s = 158: (0, 22, 10, 0, 70, 0, 0, 0, 12, 0, 0, 0)
s = 159: (0, 19, 8, 0, 42, 0, 0, 0, 14, 0, 0, 0)
s = 160: (0, 33, 5, 0, 59, 0, 0, 0, 26, 0, 0, 0)
s = 161: (0, 36, 5, 0, 42, 0, 0, 0, 11, 0, 0, 0)
s = 162: (0, 27, 5, 0, 34, 0, 0, 0, 20, 0, 0, 0)
s = 163: (0, 26, 6, 0, 56, 0, 0, 0, 16, 0, 0, 0)
s = 164: (0, 35, 4, 0, 31, 0, 0, 0, 15, 0, 0, 0)
s = 165: (0, 28, 8, 0, 68, 0, 0, 0, 16, 0, 0, 0)
s = 166: (0, 28, 5, 0, 65, 0, 0, 0, 19, 0, 0, 0)
s = 167: (0, 25, 5, 0, 71, 0, 0, 0, 19, 0, 0, 0)
s = 168: (0, 19, 10, 0, 64, 0, 0, 0, 20, 0, 0, 0)
s = 169: (0, 30, 9, 0, 54, 0, 0, 0, 16, 0, 0, 0)
s = 170: (0, 29, 7, 0, 35, 0, 0, 0, 18, 0, 0, 0)
s = 171: (0, 32, 7, 0, 72, 0, 0, 0, 33, 0, 0, 0)
s = 172: (0, 23, 11, 0, 59, 0, 0, 0, 16, 0, 0, 0)
s = 173: (0, 41, 5, 0, 56, 0, 0, 0, 20, 0, 0, 0)
s = 174: (0, 25, 6, 0, 32, 0, 0, 0, 17, 0, 0, 0)
s = 175: (0, 31, 9, 0, 61, 0, 0, 0, 19, 0, 0, 0)
s = 176: (0, 24, 14, 0, 31, 0, 0, 0, 24, 0, 0, 0)
s = 177: (0, 17, 9, 0, 43, 0, 0, 0, 13, 0, 0, 0)
s = 178: (0, 32, 8, 0, 44, 0, 0, 0, 12, 0, 0, 0)
s = 179: (0, 17, 8, 0, 57, 0, 0, 0, 12, 0, 0, 0)
s = 180: (0, 33, 5, 0, 29, 0, 0, 0, 22, 0, 0, 0)
s = 181: (0, 19, 5, 0, 37, 0, 0, 0, 13, 0, 0, 0)
s = 182: (0, 38, 10, 0, 31, 0, 0, 0, 13, 0, 0, 0)
s = 183: (0, 34, 5, 0, 45, 0, 0, 0, 14, 0, 0, 0)
s = 184: (0, 48, 5, 0, 77, 0, 0, 0, 17, 0, 0, 0)
s = 185: (0, 21, 7, 0, 65, 0, 0, 0, 18, 0, 0, 0)
s = 186: (0, 31, 10, 0, 43, 0, 0, 0, 14, 0, 0, 0)
s = 187: (0, 20, 5, 0, 53, 0, 0, 0, 11, 0, 0, 0)
s = 188: (0, 19, 8, 0, 47, 0, 0, 0, 15, 0, 0, 0)
s = 189: (0, 22, 8, 0, 44, 0, 0, 0, 25, 0, 0, 0)
s = 190: (0, 30, 8, 0, 34, 0, 0, 0, 16, 0, 0, 0)
s = 191: (0, 23, 7, 0, 62, 0, 0, 0, 20, 0, 0, 0)
s = 192: (0, 28, 7, 0, 49, 0, 0, 0, 29, 0, 0, 0)
s = 193: (0, 22, 5, 0, 30, 0, 0, 0, 34, 0, 0, 0)
s = 194: (0, 18, 11, 0, 46, 0, 0, 0, 28, 0, 0, 0)
s = 195: (0, 17, 9, 0, 50, 0, 0, 0, 19, 0, 0, 0)
s = 196: (0, 23, 8, 0, 45, 0, 0, 0, 23, 0, 0, 0)
s = 197: (0, 22, 5, 0, 53, 0, 0, 0, 24, 0, 0, 0)
s = 198: (0, 20, 8, 0, 65, 0, 0, 0, 14, 0, 0, 0)
s = 199: (0, 29, 7, 0, 56, 0, 0, 0, 22, 0, 0, 0)
s = 200: (0, 32, 9, 0, 48, 0, 0, 0, 28, 0, 0, 0)
************************************************************************
ES/LS-VALUES:
jobnr.   ES(i)    LS(i)
------------------------------------------------------------------------
  0        0        0
  1        0       64
  2        0       47
  3        0       62
  4        2       49
  5        3       74
  6        3       66
  7       11       59
  8       23       76
  9       23       72
 10       11       78
 11       34       84
************************************************************************
BIG-M-VALUES:
M1 = 64, M2 = 236
************************************************************************
